%chk=opt_freq.chk
%nproc=2
%mem=2GB
#sp b3lyp/6-311+G(3df) 

single point of HOSO

0 2
S -0.141170 -0.441675 0.010424
O 1.384478 0.220099 -0.029462
O -1.264263 0.515268 -0.013893
H 1.376997 1.183861 0.144065

