%chk=opt_freq.chk
%nproc=2
%mem=2GB
#sp b3lyp/6-311+G(3df) 

single point of HOSO

0 2
S -0.138170 -0.476675 0.015424
O 1.333478 0.250099 -0.041462
O -1.205263 0.556268 -0.017893
H 1.136997 1.164861 0.243065

