%chk=opt_freq.chk
%nproc=2
%mem=2GB
#sp b3lyp/6-311+G(3df) 

single point of HOSO

0 2
S -0.143170 -0.469675 0.026424
O 1.328478 0.256099 -0.071462
O -1.208263 0.543268 -0.033893
H 1.336997 1.079861 0.596065

