%chk=opt_freq.chk
%nproc=2
%mem=2GB
#sp b3lyp/6-311+G(3df) 

single point of HOSO

0 2
S -0.140170 -0.423675 0.008424
O 1.412478 0.202099 -0.024462
O -1.298263 0.497268 -0.011893
H 1.448997 1.183861 0.102065

