%chk=opt_freq.chk
%nproc=2
%mem=2GB
#sp wB97XD/6-31G* 

single point of water dimer

0 1
