%chk=opt_freq.chk
%nproc=2
%mem=2GB
#sp b3lyp/6-311+G(3df) 

single point of HOSO

0 2
S -0.176170 -0.502675 0.016424
O 1.399478 0.294099 -0.044462
O -1.198263 0.561268 -0.018893
H 1.204997 1.203861 0.252065

