%chk=opt_freq.chk
%nproc=2
%mem=2GB
#sp b3lyp/6-311+G(3df) 

single point of HOSO

0 2
S -0.209170 -0.527675 0.018424
O 1.470478 0.332099 -0.049462
O -1.200263 0.571268 -0.019893
H 1.176997 1.223861 0.276065

