%chk=opt_freq.chk
%nproc=2
%mem=2GB
#sp b3lyp/6-311+G(3df) 

single point of HOSO

0 2
S -0.110170 -0.452675 0.012424
O 1.257478 0.218099 -0.034462
O -1.194263 0.541268 -0.016893
H 1.260997 1.163861 0.204065

