%chk=opt_freq.chk
%nproc=2
%mem=2GB
#sp b3lyp/6-311+G(3df) 

single point of HOSO

0 2
S -0.139170 -0.405675 0.006424
O 1.440478 0.184099 -0.019462
O -1.332263 0.479268 -0.009893
H 1.520997 1.183861 0.060065

