%chk=opt_freq.chk
%nproc=2
%mem=2GB
#sp b3lyp/6-311+G(3df) 

single point of HOSO

0 2
S -0.123170 -0.473675 0.018424
O 1.348478 0.232099 -0.047462
O -1.232263 0.571268 -0.017893
H 0.848997 1.107861 0.288065

