%chk=opt_freq.chk
%nproc=2
%mem=2GB
#sp b3lyp/6-311+G(3df) 

single point of HOSO

0 2
S -0.128170 -0.474675 0.017424
O 1.343478 0.238099 -0.045462
O -1.223263 0.566268 -0.017893
H 0.944997 1.126861 0.273065

