%chk=opt_freq.chk
%nproc=2
%mem=2GB
#sp b3lyp/6-311+G(3df) 

single point of HOSO

0 2
S -0.143170 -0.485675 0.002424
O 1.328478 0.256099 -0.007462
O -1.184263 0.559268 -0.001893
H 1.128997 1.287861 -0.139935

