%chk=opt_freq.chk
%nproc=2
%mem=2GB
#sp b3lyp/6-311+G(3df) 

single point of HOSO

0 2
S -0.148170 -0.478675 0.013424
O 1.323478 0.262099 -0.037462
O -1.187263 0.546268 -0.017893
H 1.328997 1.202861 0.213065

