%chk=opt_freq.chk
%nproc=2
%mem=2GB
#sp b3lyp/6-311+G(3df) 

single point of HOSO

0 2
S -0.275170 -0.577675 0.022424
O 1.612478 0.408099 -0.059462
O -1.204263 0.591268 -0.021893
H 1.120997 1.263861 0.324065

