%chk=opt_freq.chk
%nproc=2
%mem=2GB
#sp b3lyp/6-311+G(3df) 

single point of HOSO

0 2
S -0.142170 -0.459675 0.012424
O 1.356478 0.238099 -0.034462
O -1.230263 0.533268 -0.015893
H 1.304997 1.183861 0.186065

