%chk=opt_freq.chk
%nproc=2
%mem=2GB
#sp b3lyp/6-311+G(3df) 

single point of HOSO

0 2
S -0.083170 -0.553675 0.014424
O 1.308478 0.272099 -0.031462
O -1.320263 0.683268 -0.021893
H 1.564997 1.243861 0.184065

