%chk=opt_freq.chk
%nproc=2
%mem=2GB
#sp b3lyp/6-311+G(3df) 

single point of HOSO

0 2
S -0.143170 -0.479675 0.011424
O 1.328478 0.256099 -0.031462
O -1.193263 0.553268 -0.013893
H 1.206997 1.209861 0.136065

