%chk=opt_freq.chk
%nproc=2
%mem=2GB
#sp b3lyp/6-311+G(3df) 

single point of HOSO

0 2
S -0.203170 -0.401675 0.014424
O 1.348478 0.240099 -0.047462
O -1.072263 0.419268 -0.013893
H 0.900997 1.123861 0.272065

