%chk=opt_freq.chk
%nproc=2
%mem=2GB
#sp b3lyp/6-311+G(3df) 

single point of HOSO

0 2
S -0.153170 -0.479675 0.012424
O 1.318478 0.268099 -0.035462
O -1.178263 0.541268 -0.017893
H 1.424997 1.221861 0.198065

