%chk=opt_freq.chk
%nproc=2
%mem=2GB
#sp b3lyp/6-311+G(3df) 

single point of HOSO

0 2
S -0.173170 -0.439675 0.014424
O 1.338478 0.248099 -0.043462
O -1.134263 0.485268 -0.015893
H 1.066997 1.153861 0.250065

