%chk=opt_freq.chk
%nproc=2
%mem=2GB
#sp b3lyp/6-311+G(3df) 

single point of HOSO

0 2
S -0.113170 -0.515675 0.014424
O 1.318478 0.264099 -0.035462
O -1.258263 0.617268 -0.019893
H 1.398997 1.213861 0.206065

