%chk=opt_freq.chk
%nproc=2
%mem=2GB
#sp b3lyp/6-311+G(3df) 

single point of HOSO

0 2
S -0.011170 -0.377675 0.006424
O 1.044478 0.104099 -0.019462
O -1.188263 0.511268 -0.013893
H 1.344997 1.103861 0.132065

