%chk=opt_freq.chk
%nproc=2
%mem=2GB
#sp b3lyp/6-311+G(3df) 

single point of HOSO

0 2
S -0.077170 -0.427675 0.010424
O 1.186478 0.180099 -0.029462
O -1.192263 0.531268 -0.015893
H 1.288997 1.143861 0.180065

