%chk=opt_freq.chk
%nproc=2
%mem=2GB
#sp b3lyp/6-311+G(3df) 

single point of HOSO

0 2
S -0.098170 -0.534675 0.014424
O 1.313478 0.268099 -0.033462
O -1.289263 0.650268 -0.020893
H 1.481997 1.228861 0.195065

