%chk=opt_freq.chk
%nproc=2
%mem=2GB
#sp b3lyp/6-311+G(3df) 

single point of HOSO

0 2
S -0.044170 -0.402675 0.008424
O 1.115478 0.142099 -0.024462
O -1.190263 0.521268 -0.014893
H 1.316997 1.123861 0.156065

