%chk=opt_freq.chk
%nproc=2
%mem=2GB
#sp b3lyp/6-311+G(3df) 

single point of HOSO

0 2
S -0.143170 -0.475675 0.017424
O 1.328478 0.256099 -0.047462
O -1.199263 0.549268 -0.021893
H 1.258997 1.157861 0.320065

