%chk=opt_freq.chk
%nproc=2
%mem=2GB
#sp b3lyp/6-311+G(3df) 

single point of HOSO

0 2
S -0.143170 -0.471675 0.023424
O 1.328478 0.256099 -0.063462
O -1.205263 0.545268 -0.029893
H 1.310997 1.105861 0.504065

