%chk=opt_freq.chk
%nproc=2
%mem=2GB
#sp b3lyp/6-311+G(3df) 

single point of HOSO

0 2
S -0.145170 -0.513675 0.018424
O 1.272478 0.292099 -0.049462
O -1.128263 0.587268 -0.021893
H 1.088997 1.183861 0.312065

