%chk=opt_freq.chk
%nproc=2
%mem=2GB
#sp b3lyp/6-311+G(3df) 

single point of HOSO

0 2
S -0.143170 -0.483675 0.005424
O 1.328478 0.256099 -0.015462
O -1.187263 0.557268 -0.005893
H 1.154997 1.261861 -0.047935

