%chk=opt_freq.chk
%nproc=2
%mem=2GB
#sp b3lyp/6-311+G(3df) 

single point of HOSO

0 2
S -0.163170 -0.481675 0.010424
O 1.308478 0.280099 -0.031462
O -1.160263 0.531268 -0.017893
H 1.616997 1.259861 0.168065

