%chk=opt_freq.chk
%nproc=2
%mem=2GB
#sp b3lyp/6-311+G(3df) 

single point of HOSO

0 2
S -0.143170 -0.477675 0.014424
O 1.328478 0.262099 -0.037462
O -1.196263 0.551268 -0.017893
H 1.240997 1.087861 0.201065

