%chk=opt_freq.chk
%nproc=2
%mem=2GB
#sp b3lyp/6-311+G(3df) 

single point of HOSO

0 2
S -0.143170 -0.477675 0.014424
O 1.328478 0.274099 -0.033462
O -1.196263 0.551268 -0.017893
H 1.256997 0.895861 0.147065

