%chk=opt_freq.chk
%nproc=2
%mem=2GB
#sp b3lyp/6-311+G(3df) 

single point of HOSO

0 2
S -0.147170 -0.549675 0.022424
O 1.216478 0.328099 -0.059462
O -1.060263 0.623268 -0.025893
H 0.944997 1.183861 0.396065

