%chk=opt_freq.chk
%nproc=2
%mem=2GB
#sp b3lyp/6-311+G(3df) 

single point of HOSO

0 2
S -0.146170 -0.531675 0.020424
O 1.244478 0.310099 -0.054462
O -1.094263 0.605268 -0.023893
H 1.016997 1.183861 0.354065

